\ Model gq_model
\ LP format - for model browsing. Use MPS format to capture full model detail.
\ Signature: 0xc1f8b0e04f2a7dd3
Maximize
  0 x[0,0,0] + 0 x[0,0,1] + 0 x[0,0,2] + 0 x[0,0,3] + 3.6056 x[0,1,0]
   + 3.6056 x[0,1,1] + 3.6056 x[0,1,2] + 3.6056 x[0,1,3] + 9.434 x[0,2,0]
   + 9.434 x[0,2,1] + 9.434 x[0,2,2] + 9.434 x[0,2,3] + 6.0828 x[0,3,0]
   + 6.0828 x[0,3,1] + 6.0828 x[0,3,2] + 6.0828 x[0,3,3] + 8.9443 x[0,4,0]
   + 8.9443 x[0,4,1] + 8.9443 x[0,4,2] + 8.9443 x[0,4,3] + 7.6158 x[0,5,0]
   + 7.6158 x[0,5,1] + 7.6158 x[0,5,2] + 7.6158 x[0,5,3] + 3.6056 x[1,0,0]
   + 3.6056 x[1,0,1] + 3.6056 x[1,0,2] + 3.6056 x[1,0,3] + 0 x[1,1,0]
   + 0 x[1,1,1] + 0 x[1,1,2] + 0 x[1,1,3] + 5.831 x[1,2,0] + 5.831 x[1,2,1]
   + 5.831 x[1,2,2] + 5.831 x[1,2,3] + 4.4721 x[1,3,0] + 4.4721 x[1,3,1]
   + 4.4721 x[1,3,2] + 4.4721 x[1,3,3] + 6.0828 x[1,4,0] + 6.0828 x[1,4,1]
   + 6.0828 x[1,4,2] + 6.0828 x[1,4,3] + 4.1231 x[1,5,0] + 4.1231 x[1,5,1]
   + 4.1231 x[1,5,2] + 4.1231 x[1,5,3] + 9.434 x[2,0,0] + 9.434 x[2,0,1]
   + 9.434 x[2,0,2] + 9.434 x[2,0,3] + 5.831 x[2,1,0] + 5.831 x[2,1,1]
   + 5.831 x[2,1,2] + 5.831 x[2,1,3] + 0 x[2,2,0] + 0 x[2,2,1] + 0 x[2,2,2]
   + 0 x[2,2,3] + 7.0711 x[2,3,0] + 7.0711 x[2,3,1] + 7.0711 x[2,3,2]
   + 7.0711 x[2,3,3] + 5 x[2,4,0] + 5 x[2,4,1] + 5 x[2,4,2] + 5 x[2,4,3]
   + 2.2361 x[2,5,0] + 2.2361 x[2,5,1] + 2.2361 x[2,5,2] + 2.2361 x[2,5,3]
   + 6.0828 x[3,0,0] + 6.0828 x[3,0,1] + 6.0828 x[3,0,2] + 6.0828 x[3,0,3]
   + 4.4721 x[3,1,0] + 4.4721 x[3,1,1] + 4.4721 x[3,1,2] + 4.4721 x[3,1,3]
   + 7.0711 x[3,2,0] + 7.0711 x[3,2,1] + 7.0711 x[3,2,2] + 7.0711 x[3,2,3]
   + 0 x[3,3,0] + 0 x[3,3,1] + 0 x[3,3,2] + 0 x[3,3,3] + 3.6056 x[3,4,0]
   + 3.6056 x[3,4,1] + 3.6056 x[3,4,2] + 3.6056 x[3,4,3] + 6.7082 x[3,5,0]
   + 6.7082 x[3,5,1] + 6.7082 x[3,5,2] + 6.7082 x[3,5,3] + 8.9443 x[4,0,0]
   + 8.9443 x[4,0,1] + 8.9443 x[4,0,2] + 8.9443 x[4,0,3] + 6.0828 x[4,1,0]
   + 6.0828 x[4,1,1] + 6.0828 x[4,1,2] + 6.0828 x[4,1,3] + 5 x[4,2,0]
   + 5 x[4,2,1] + 5 x[4,2,2] + 5 x[4,2,3] + 3.6056 x[4,3,0]
   + 3.6056 x[4,3,1] + 3.6056 x[4,3,2] + 3.6056 x[4,3,3] + 0 x[4,4,0]
   + 0 x[4,4,1] + 0 x[4,4,2] + 0 x[4,4,3] + 5.831 x[4,5,0] + 5.831 x[4,5,1]
   + 5.831 x[4,5,2] + 5.831 x[4,5,3] + 7.6158 x[5,0,0] + 7.6158 x[5,0,1]
   + 7.6158 x[5,0,2] + 7.6158 x[5,0,3] + 4.1231 x[5,1,0] + 4.1231 x[5,1,1]
   + 4.1231 x[5,1,2] + 4.1231 x[5,1,3] + 2.2361 x[5,2,0] + 2.2361 x[5,2,1]
   + 2.2361 x[5,2,2] + 2.2361 x[5,2,3] + 6.7082 x[5,3,0] + 6.7082 x[5,3,1]
   + 6.7082 x[5,3,2] + 6.7082 x[5,3,3] + 5.831 x[5,4,0] + 5.831 x[5,4,1]
   + 5.831 x[5,4,2] + 5.831 x[5,4,3] + 0 x[5,5,0] + 0 x[5,5,1] + 0 x[5,5,2]
   + 0 x[5,5,3]
Subject To
 R0: u[0] >= 0
 R1: u[1] >= 0
 R2: u[2] >= 0
 R3: u[3] >= 0
 R4: u[4] >= 0
 R5: u[5] >= 0
 R6: u[0] <= 100
 R7: u[1] <= 100
 R8: u[2] <= 100
 R9: u[3] <= 100
 R10: u[4] <= 100
 R11: u[5] <= 100
 at_least_one_visit[1]: x[0,1,0] + x[0,1,1] + x[0,1,2] + x[0,1,3]
   + x[2,1,0] + x[2,1,1] + x[2,1,2] + x[2,1,3] + x[3,1,0] + x[3,1,1]
   + x[3,1,2] + x[3,1,3] + x[4,1,0] + x[4,1,1] + x[4,1,2] + x[4,1,3]
   + x[5,1,0] + x[5,1,1] + x[5,1,2] + x[5,1,3] <= 1
 at_least_one_visit[2]: x[0,2,0] + x[0,2,1] + x[0,2,2] + x[0,2,3]
   + x[1,2,0] + x[1,2,1] + x[1,2,2] + x[1,2,3] + x[3,2,0] + x[3,2,1]
   + x[3,2,2] + x[3,2,3] + x[4,2,0] + x[4,2,1] + x[4,2,2] + x[4,2,3]
   + x[5,2,0] + x[5,2,1] + x[5,2,2] + x[5,2,3] <= 1
 at_least_one_visit[3]: x[0,3,0] + x[0,3,1] + x[0,3,2] + x[0,3,3]
   + x[1,3,0] + x[1,3,1] + x[1,3,2] + x[1,3,3] + x[2,3,0] + x[2,3,1]
   + x[2,3,2] + x[2,3,3] + x[4,3,0] + x[4,3,1] + x[4,3,2] + x[4,3,3]
   + x[5,3,0] + x[5,3,1] + x[5,3,2] + x[5,3,3] <= 1
 at_least_one_visit[4]: x[0,4,0] + x[0,4,1] + x[0,4,2] + x[0,4,3]
   + x[1,4,0] + x[1,4,1] + x[1,4,2] + x[1,4,3] + x[2,4,0] + x[2,4,1]
   + x[2,4,2] + x[2,4,3] + x[3,4,0] + x[3,4,1] + x[3,4,2] + x[3,4,3]
   + x[5,4,0] + x[5,4,1] + x[5,4,2] + x[5,4,3] <= 1
 at_least_one_visit[5]: x[0,5,0] + x[0,5,1] + x[0,5,2] + x[0,5,3]
   + x[1,5,0] + x[1,5,1] + x[1,5,2] + x[1,5,3] + x[2,5,0] + x[2,5,1]
   + x[2,5,2] + x[2,5,3] + x[3,5,0] + x[3,5,1] + x[3,5,2] + x[3,5,3]
   + x[4,5,0] + x[4,5,1] + x[4,5,2] + x[4,5,3] <= 1
 flow_balance_0_0: x[0,1,0] + x[0,2,0] + x[0,3,0] + x[0,4,0] + x[0,5,0]
   - x[1,0,0] - x[2,0,0] - x[3,0,0] - x[4,0,0] - x[5,0,0] = 0
 flow_balance_1_0: - x[0,1,0] + x[1,0,0] + x[1,2,0] + x[1,3,0] + x[1,4,0]
   + x[1,5,0] - x[2,1,0] - x[3,1,0] - x[4,1,0] - x[5,1,0] = 0
 flow_balance_2_0: - x[0,2,0] - x[1,2,0] + x[2,0,0] + x[2,1,0] + x[2,3,0]
   + x[2,4,0] + x[2,5,0] - x[3,2,0] - x[4,2,0] - x[5,2,0] = 0
 flow_balance_3_0: - x[0,3,0] - x[1,3,0] - x[2,3,0] + x[3,0,0] + x[3,1,0]
   + x[3,2,0] + x[3,4,0] + x[3,5,0] - x[4,3,0] - x[5,3,0] = 0
 flow_balance_4_0: - x[0,4,0] - x[1,4,0] - x[2,4,0] - x[3,4,0] + x[4,0,0]
   + x[4,1,0] + x[4,2,0] + x[4,3,0] + x[4,5,0] - x[5,4,0] = 0
 flow_balance_5_0: - x[0,5,0] - x[1,5,0] - x[2,5,0] - x[3,5,0] - x[4,5,0]
   + x[5,0,0] + x[5,1,0] + x[5,2,0] + x[5,3,0] + x[5,4,0] = 0
 flow_balance_0_1: x[0,1,1] + x[0,2,1] + x[0,3,1] + x[0,4,1] + x[0,5,1]
   - x[1,0,1] - x[2,0,1] - x[3,0,1] - x[4,0,1] - x[5,0,1] = 0
 flow_balance_1_1: - x[0,1,1] + x[1,0,1] + x[1,2,1] + x[1,3,1] + x[1,4,1]
   + x[1,5,1] - x[2,1,1] - x[3,1,1] - x[4,1,1] - x[5,1,1] = 0
 flow_balance_2_1: - x[0,2,1] - x[1,2,1] + x[2,0,1] + x[2,1,1] + x[2,3,1]
   + x[2,4,1] + x[2,5,1] - x[3,2,1] - x[4,2,1] - x[5,2,1] = 0
 flow_balance_3_1: - x[0,3,1] - x[1,3,1] - x[2,3,1] + x[3,0,1] + x[3,1,1]
   + x[3,2,1] + x[3,4,1] + x[3,5,1] - x[4,3,1] - x[5,3,1] = 0
 flow_balance_4_1: - x[0,4,1] - x[1,4,1] - x[2,4,1] - x[3,4,1] + x[4,0,1]
   + x[4,1,1] + x[4,2,1] + x[4,3,1] + x[4,5,1] - x[5,4,1] = 0
 flow_balance_5_1: - x[0,5,1] - x[1,5,1] - x[2,5,1] - x[3,5,1] - x[4,5,1]
   + x[5,0,1] + x[5,1,1] + x[5,2,1] + x[5,3,1] + x[5,4,1] = 0
 flow_balance_0_2: x[0,1,2] + x[0,2,2] + x[0,3,2] + x[0,4,2] + x[0,5,2]
   - x[1,0,2] - x[2,0,2] - x[3,0,2] - x[4,0,2] - x[5,0,2] = 0
 flow_balance_1_2: - x[0,1,2] + x[1,0,2] + x[1,2,2] + x[1,3,2] + x[1,4,2]
   + x[1,5,2] - x[2,1,2] - x[3,1,2] - x[4,1,2] - x[5,1,2] = 0
 flow_balance_2_2: - x[0,2,2] - x[1,2,2] + x[2,0,2] + x[2,1,2] + x[2,3,2]
   + x[2,4,2] + x[2,5,2] - x[3,2,2] - x[4,2,2] - x[5,2,2] = 0
 flow_balance_3_2: - x[0,3,2] - x[1,3,2] - x[2,3,2] + x[3,0,2] + x[3,1,2]
   + x[3,2,2] + x[3,4,2] + x[3,5,2] - x[4,3,2] - x[5,3,2] = 0
 flow_balance_4_2: - x[0,4,2] - x[1,4,2] - x[2,4,2] - x[3,4,2] + x[4,0,2]
   + x[4,1,2] + x[4,2,2] + x[4,3,2] + x[4,5,2] - x[5,4,2] = 0
 flow_balance_5_2: - x[0,5,2] - x[1,5,2] - x[2,5,2] - x[3,5,2] - x[4,5,2]
   + x[5,0,2] + x[5,1,2] + x[5,2,2] + x[5,3,2] + x[5,4,2] = 0
 flow_balance_0_3: x[0,1,3] + x[0,2,3] + x[0,3,3] + x[0,4,3] + x[0,5,3]
   - x[1,0,3] - x[2,0,3] - x[3,0,3] - x[4,0,3] - x[5,0,3] = 0
 flow_balance_1_3: - x[0,1,3] + x[1,0,3] + x[1,2,3] + x[1,3,3] + x[1,4,3]
   + x[1,5,3] - x[2,1,3] - x[3,1,3] - x[4,1,3] - x[5,1,3] = 0
 flow_balance_2_3: - x[0,2,3] - x[1,2,3] + x[2,0,3] + x[2,1,3] + x[2,3,3]
   + x[2,4,3] + x[2,5,3] - x[3,2,3] - x[4,2,3] - x[5,2,3] = 0
 flow_balance_3_3: - x[0,3,3] - x[1,3,3] - x[2,3,3] + x[3,0,3] + x[3,1,3]
   + x[3,2,3] + x[3,4,3] + x[3,5,3] - x[4,3,3] - x[5,3,3] = 0
 flow_balance_4_3: - x[0,4,3] - x[1,4,3] - x[2,4,3] - x[3,4,3] + x[4,0,3]
   + x[4,1,3] + x[4,2,3] + x[4,3,3] + x[4,5,3] - x[5,4,3] = 0
 flow_balance_5_3: - x[0,5,3] - x[1,5,3] - x[2,5,3] - x[3,5,3] - x[4,5,3]
   + x[5,0,3] + x[5,1,3] + x[5,2,3] + x[5,3,3] + x[5,4,3] = 0
 deport_depart_0: x[0,1,0] + x[0,2,0] + x[0,3,0] + x[0,4,0] + x[0,5,0]
   <= 1
 deport_depart_0: x[1,0,0] + x[2,0,0] + x[3,0,0] + x[4,0,0] + x[5,0,0]
   <= 1
 deport_depart_1: x[0,1,1] + x[0,2,1] + x[0,3,1] + x[0,4,1] + x[0,5,1]
   <= 1
 deport_depart_1: x[1,0,1] + x[2,0,1] + x[3,0,1] + x[4,0,1] + x[5,0,1]
   <= 1
 deport_depart_2: x[0,1,2] + x[0,2,2] + x[0,3,2] + x[0,4,2] + x[0,5,2]
   <= 1
 deport_depart_2: x[1,0,2] + x[2,0,2] + x[3,0,2] + x[4,0,2] + x[5,0,2]
   <= 1
 deport_depart_3: x[0,1,3] + x[0,2,3] + x[0,3,3] + x[0,4,3] + x[0,5,3]
   <= 1
 deport_depart_3: x[1,0,3] + x[2,0,3] + x[3,0,3] + x[4,0,3] + x[5,0,3]
   <= 1
 R49: x[0,1,0] - y[0,0] <= 0
 R50: x[0,1,1] - y[0,1] <= 0
 R51: x[0,1,2] - y[0,2] <= 0
 R52: x[0,1,3] - y[0,3] <= 0
 R53: x[0,2,0] - y[0,0] <= 0
 R54: x[0,2,1] - y[0,1] <= 0
 R55: x[0,2,2] - y[0,2] <= 0
 R56: x[0,2,3] - y[0,3] <= 0
 R57: x[0,3,0] - y[0,0] <= 0
 R58: x[0,3,1] - y[0,1] <= 0
 R59: x[0,3,2] - y[0,2] <= 0
 R60: x[0,3,3] - y[0,3] <= 0
 R61: x[0,4,0] - y[0,0] <= 0
 R62: x[0,4,1] - y[0,1] <= 0
 R63: x[0,4,2] - y[0,2] <= 0
 R64: x[0,4,3] - y[0,3] <= 0
 R65: x[0,5,0] - y[0,0] <= 0
 R66: x[0,5,1] - y[0,1] <= 0
 R67: x[0,5,2] - y[0,2] <= 0
 R68: x[0,5,3] - y[0,3] <= 0
 R69: x[1,0,0] - y[1,0] <= 0
 R70: x[1,0,1] - y[1,1] <= 0
 R71: x[1,0,2] - y[1,2] <= 0
 R72: x[1,0,3] - y[1,3] <= 0
 R73: x[1,2,0] - y[1,0] <= 0
 R74: x[1,2,1] - y[1,1] <= 0
 R75: x[1,2,2] - y[1,2] <= 0
 R76: x[1,2,3] - y[1,3] <= 0
 R77: x[1,3,0] - y[1,0] <= 0
 R78: x[1,3,1] - y[1,1] <= 0
 R79: x[1,3,2] - y[1,2] <= 0
 R80: x[1,3,3] - y[1,3] <= 0
 R81: x[1,4,0] - y[1,0] <= 0
 R82: x[1,4,1] - y[1,1] <= 0
 R83: x[1,4,2] - y[1,2] <= 0
 R84: x[1,4,3] - y[1,3] <= 0
 R85: x[1,5,0] - y[1,0] <= 0
 R86: x[1,5,1] - y[1,1] <= 0
 R87: x[1,5,2] - y[1,2] <= 0
 R88: x[1,5,3] - y[1,3] <= 0
 R89: x[2,0,0] - y[2,0] <= 0
 R90: x[2,0,1] - y[2,1] <= 0
 R91: x[2,0,2] - y[2,2] <= 0
 R92: x[2,0,3] - y[2,3] <= 0
 R93: x[2,1,0] - y[2,0] <= 0
 R94: x[2,1,1] - y[2,1] <= 0
 R95: x[2,1,2] - y[2,2] <= 0
 R96: x[2,1,3] - y[2,3] <= 0
 R97: x[2,3,0] - y[2,0] <= 0
 R98: x[2,3,1] - y[2,1] <= 0
 R99: x[2,3,2] - y[2,2] <= 0
 R100: x[2,3,3] - y[2,3] <= 0
 R101: x[2,4,0] - y[2,0] <= 0
 R102: x[2,4,1] - y[2,1] <= 0
 R103: x[2,4,2] - y[2,2] <= 0
 R104: x[2,4,3] - y[2,3] <= 0
 R105: x[2,5,0] - y[2,0] <= 0
 R106: x[2,5,1] - y[2,1] <= 0
 R107: x[2,5,2] - y[2,2] <= 0
 R108: x[2,5,3] - y[2,3] <= 0
 R109: x[3,0,0] - y[3,0] <= 0
 R110: x[3,0,1] - y[3,1] <= 0
 R111: x[3,0,2] - y[3,2] <= 0
 R112: x[3,0,3] - y[3,3] <= 0
 R113: x[3,1,0] - y[3,0] <= 0
 R114: x[3,1,1] - y[3,1] <= 0
 R115: x[3,1,2] - y[3,2] <= 0
 R116: x[3,1,3] - y[3,3] <= 0
 R117: x[3,2,0] - y[3,0] <= 0
 R118: x[3,2,1] - y[3,1] <= 0
 R119: x[3,2,2] - y[3,2] <= 0
 R120: x[3,2,3] - y[3,3] <= 0
 R121: x[3,4,0] - y[3,0] <= 0
 R122: x[3,4,1] - y[3,1] <= 0
 R123: x[3,4,2] - y[3,2] <= 0
 R124: x[3,4,3] - y[3,3] <= 0
 R125: x[3,5,0] - y[3,0] <= 0
 R126: x[3,5,1] - y[3,1] <= 0
 R127: x[3,5,2] - y[3,2] <= 0
 R128: x[3,5,3] - y[3,3] <= 0
 R129: x[4,0,0] - y[4,0] <= 0
 R130: x[4,0,1] - y[4,1] <= 0
 R131: x[4,0,2] - y[4,2] <= 0
 R132: x[4,0,3] - y[4,3] <= 0
 R133: x[4,1,0] - y[4,0] <= 0
 R134: x[4,1,1] - y[4,1] <= 0
 R135: x[4,1,2] - y[4,2] <= 0
 R136: x[4,1,3] - y[4,3] <= 0
 R137: x[4,2,0] - y[4,0] <= 0
 R138: x[4,2,1] - y[4,1] <= 0
 R139: x[4,2,2] - y[4,2] <= 0
 R140: x[4,2,3] - y[4,3] <= 0
 R141: x[4,3,0] - y[4,0] <= 0
 R142: x[4,3,1] - y[4,1] <= 0
 R143: x[4,3,2] - y[4,2] <= 0
 R144: x[4,3,3] - y[4,3] <= 0
 R145: x[4,5,0] - y[4,0] <= 0
 R146: x[4,5,1] - y[4,1] <= 0
 R147: x[4,5,2] - y[4,2] <= 0
 R148: x[4,5,3] - y[4,3] <= 0
 R149: x[5,0,0] - y[5,0] <= 0
 R150: x[5,0,1] - y[5,1] <= 0
 R151: x[5,0,2] - y[5,2] <= 0
 R152: x[5,0,3] - y[5,3] <= 0
 R153: x[5,1,0] - y[5,0] <= 0
 R154: x[5,1,1] - y[5,1] <= 0
 R155: x[5,1,2] - y[5,2] <= 0
 R156: x[5,1,3] - y[5,3] <= 0
 R157: x[5,2,0] - y[5,0] <= 0
 R158: x[5,2,1] - y[5,1] <= 0
 R159: x[5,2,2] - y[5,2] <= 0
 R160: x[5,2,3] - y[5,3] <= 0
 R161: x[5,3,0] - y[5,0] <= 0
 R162: x[5,3,1] - y[5,1] <= 0
 R163: x[5,3,2] - y[5,2] <= 0
 R164: x[5,3,3] - y[5,3] <= 0
 R165: x[5,4,0] - y[5,0] <= 0
 R166: x[5,4,1] - y[5,1] <= 0
 R167: x[5,4,2] - y[5,2] <= 0
 R168: x[5,4,3] - y[5,3] <= 0
 time_continuity[0,0,1]: - 1e+06 x[0,1,0] - u[0] + u[1] - t[0,0]
   >= -999996.3944
 time_continuity[0,0,2]: - 1e+06 x[0,2,0] - u[0] + u[2] - t[0,0]
   >= -999990.566
 time_continuity[0,0,3]: - 1e+06 x[0,3,0] - u[0] + u[3] - t[0,0]
   >= -999993.9172
 time_continuity[0,0,4]: - 1e+06 x[0,4,0] - u[0] + u[4] - t[0,0]
   >= -999991.0557
 time_continuity[0,0,5]: - 1e+06 x[0,5,0] - u[0] + u[5] - t[0,0]
   >= -999992.3842
 time_continuity[0,1,2]: - 1e+06 x[1,2,0] - u[1] + u[2] - t[1,0]
   >= -999994.169
 time_continuity[0,1,3]: - 1e+06 x[1,3,0] - u[1] + u[3] - t[1,0]
   >= -999995.5279
 time_continuity[0,1,4]: - 1e+06 x[1,4,0] - u[1] + u[4] - t[1,0]
   >= -999993.9172
 time_continuity[0,1,5]: - 1e+06 x[1,5,0] - u[1] + u[5] - t[1,0]
   >= -999995.8769
 time_continuity[0,2,1]: - 1e+06 x[2,1,0] + u[1] - u[2] - t[2,0]
   >= -999994.169
 time_continuity[0,2,3]: - 1e+06 x[2,3,0] - u[2] + u[3] - t[2,0]
   >= -999992.9289000001
 time_continuity[0,2,4]: - 1e+06 x[2,4,0] - u[2] + u[4] - t[2,0]
   >= -999995
 time_continuity[0,2,5]: - 1e+06 x[2,5,0] - u[2] + u[5] - t[2,0]
   >= -999997.7639
 time_continuity[0,3,1]: - 1e+06 x[3,1,0] + u[1] - u[3] - t[3,0]
   >= -999995.5279
 time_continuity[0,3,2]: - 1e+06 x[3,2,0] + u[2] - u[3] - t[3,0]
   >= -999992.9289000001
 time_continuity[0,3,4]: - 1e+06 x[3,4,0] - u[3] + u[4] - t[3,0]
   >= -999996.3944
 time_continuity[0,3,5]: - 1e+06 x[3,5,0] - u[3] + u[5] - t[3,0]
   >= -999993.2918
 time_continuity[0,4,1]: - 1e+06 x[4,1,0] + u[1] - u[4] - t[4,0]
   >= -999993.9172
 time_continuity[0,4,2]: - 1e+06 x[4,2,0] + u[2] - u[4] - t[4,0]
   >= -999995
 time_continuity[0,4,3]: - 1e+06 x[4,3,0] + u[3] - u[4] - t[4,0]
   >= -999996.3944
 time_continuity[0,4,5]: - 1e+06 x[4,5,0] - u[4] + u[5] - t[4,0]
   >= -999994.169
 time_continuity[0,5,1]: - 1e+06 x[5,1,0] + u[1] - u[5] - t[5,0]
   >= -999995.8769
 time_continuity[0,5,2]: - 1e+06 x[5,2,0] + u[2] - u[5] - t[5,0]
   >= -999997.7639
 time_continuity[0,5,3]: - 1e+06 x[5,3,0] + u[3] - u[5] - t[5,0]
   >= -999993.2918
 time_continuity[0,5,4]: - 1e+06 x[5,4,0] + u[4] - u[5] - t[5,0]
   >= -999994.169
 time_continuity[1,0,1]: - 1e+06 x[0,1,1] - u[0] + u[1] - t[0,1]
   >= -999996.3944
 time_continuity[1,0,2]: - 1e+06 x[0,2,1] - u[0] + u[2] - t[0,1]
   >= -999990.566
 time_continuity[1,0,3]: - 1e+06 x[0,3,1] - u[0] + u[3] - t[0,1]
   >= -999993.9172
 time_continuity[1,0,4]: - 1e+06 x[0,4,1] - u[0] + u[4] - t[0,1]
   >= -999991.0557
 time_continuity[1,0,5]: - 1e+06 x[0,5,1] - u[0] + u[5] - t[0,1]
   >= -999992.3842
 time_continuity[1,1,2]: - 1e+06 x[1,2,1] - u[1] + u[2] - t[1,1]
   >= -999994.169
 time_continuity[1,1,3]: - 1e+06 x[1,3,1] - u[1] + u[3] - t[1,1]
   >= -999995.5279
 time_continuity[1,1,4]: - 1e+06 x[1,4,1] - u[1] + u[4] - t[1,1]
   >= -999993.9172
 time_continuity[1,1,5]: - 1e+06 x[1,5,1] - u[1] + u[5] - t[1,1]
   >= -999995.8769
 time_continuity[1,2,1]: - 1e+06 x[2,1,1] + u[1] - u[2] - t[2,1]
   >= -999994.169
 time_continuity[1,2,3]: - 1e+06 x[2,3,1] - u[2] + u[3] - t[2,1]
   >= -999992.9289000001
 time_continuity[1,2,4]: - 1e+06 x[2,4,1] - u[2] + u[4] - t[2,1]
   >= -999995
 time_continuity[1,2,5]: - 1e+06 x[2,5,1] - u[2] + u[5] - t[2,1]
   >= -999997.7639
 time_continuity[1,3,1]: - 1e+06 x[3,1,1] + u[1] - u[3] - t[3,1]
   >= -999995.5279
 time_continuity[1,3,2]: - 1e+06 x[3,2,1] + u[2] - u[3] - t[3,1]
   >= -999992.9289000001
 time_continuity[1,3,4]: - 1e+06 x[3,4,1] - u[3] + u[4] - t[3,1]
   >= -999996.3944
 time_continuity[1,3,5]: - 1e+06 x[3,5,1] - u[3] + u[5] - t[3,1]
   >= -999993.2918
 time_continuity[1,4,1]: - 1e+06 x[4,1,1] + u[1] - u[4] - t[4,1]
   >= -999993.9172
 time_continuity[1,4,2]: - 1e+06 x[4,2,1] + u[2] - u[4] - t[4,1]
   >= -999995
 time_continuity[1,4,3]: - 1e+06 x[4,3,1] + u[3] - u[4] - t[4,1]
   >= -999996.3944
 time_continuity[1,4,5]: - 1e+06 x[4,5,1] - u[4] + u[5] - t[4,1]
   >= -999994.169
 time_continuity[1,5,1]: - 1e+06 x[5,1,1] + u[1] - u[5] - t[5,1]
   >= -999995.8769
 time_continuity[1,5,2]: - 1e+06 x[5,2,1] + u[2] - u[5] - t[5,1]
   >= -999997.7639
 time_continuity[1,5,3]: - 1e+06 x[5,3,1] + u[3] - u[5] - t[5,1]
   >= -999993.2918
 time_continuity[1,5,4]: - 1e+06 x[5,4,1] + u[4] - u[5] - t[5,1]
   >= -999994.169
 time_continuity[2,0,1]: - 1e+06 x[0,1,2] - u[0] + u[1] - t[0,2]
   >= -999996.3944
 time_continuity[2,0,2]: - 1e+06 x[0,2,2] - u[0] + u[2] - t[0,2]
   >= -999990.566
 time_continuity[2,0,3]: - 1e+06 x[0,3,2] - u[0] + u[3] - t[0,2]
   >= -999993.9172
 time_continuity[2,0,4]: - 1e+06 x[0,4,2] - u[0] + u[4] - t[0,2]
   >= -999991.0557
 time_continuity[2,0,5]: - 1e+06 x[0,5,2] - u[0] + u[5] - t[0,2]
   >= -999992.3842
 time_continuity[2,1,2]: - 1e+06 x[1,2,2] - u[1] + u[2] - t[1,2]
   >= -999994.169
 time_continuity[2,1,3]: - 1e+06 x[1,3,2] - u[1] + u[3] - t[1,2]
   >= -999995.5279
 time_continuity[2,1,4]: - 1e+06 x[1,4,2] - u[1] + u[4] - t[1,2]
   >= -999993.9172
 time_continuity[2,1,5]: - 1e+06 x[1,5,2] - u[1] + u[5] - t[1,2]
   >= -999995.8769
 time_continuity[2,2,1]: - 1e+06 x[2,1,2] + u[1] - u[2] - t[2,2]
   >= -999994.169
 time_continuity[2,2,3]: - 1e+06 x[2,3,2] - u[2] + u[3] - t[2,2]
   >= -999992.9289000001
 time_continuity[2,2,4]: - 1e+06 x[2,4,2] - u[2] + u[4] - t[2,2]
   >= -999995
 time_continuity[2,2,5]: - 1e+06 x[2,5,2] - u[2] + u[5] - t[2,2]
   >= -999997.7639
 time_continuity[2,3,1]: - 1e+06 x[3,1,2] + u[1] - u[3] - t[3,2]
   >= -999995.5279
 time_continuity[2,3,2]: - 1e+06 x[3,2,2] + u[2] - u[3] - t[3,2]
   >= -999992.9289000001
 time_continuity[2,3,4]: - 1e+06 x[3,4,2] - u[3] + u[4] - t[3,2]
   >= -999996.3944
 time_continuity[2,3,5]: - 1e+06 x[3,5,2] - u[3] + u[5] - t[3,2]
   >= -999993.2918
 time_continuity[2,4,1]: - 1e+06 x[4,1,2] + u[1] - u[4] - t[4,2]
   >= -999993.9172
 time_continuity[2,4,2]: - 1e+06 x[4,2,2] + u[2] - u[4] - t[4,2]
   >= -999995
 time_continuity[2,4,3]: - 1e+06 x[4,3,2] + u[3] - u[4] - t[4,2]
   >= -999996.3944
 time_continuity[2,4,5]: - 1e+06 x[4,5,2] - u[4] + u[5] - t[4,2]
   >= -999994.169
 time_continuity[2,5,1]: - 1e+06 x[5,1,2] + u[1] - u[5] - t[5,2]
   >= -999995.8769
 time_continuity[2,5,2]: - 1e+06 x[5,2,2] + u[2] - u[5] - t[5,2]
   >= -999997.7639
 time_continuity[2,5,3]: - 1e+06 x[5,3,2] + u[3] - u[5] - t[5,2]
   >= -999993.2918
 time_continuity[2,5,4]: - 1e+06 x[5,4,2] + u[4] - u[5] - t[5,2]
   >= -999994.169
 time_continuity[3,0,1]: - 1e+06 x[0,1,3] - u[0] + u[1] - t[0,3]
   >= -999996.3944
 time_continuity[3,0,2]: - 1e+06 x[0,2,3] - u[0] + u[2] - t[0,3]
   >= -999990.566
 time_continuity[3,0,3]: - 1e+06 x[0,3,3] - u[0] + u[3] - t[0,3]
   >= -999993.9172
 time_continuity[3,0,4]: - 1e+06 x[0,4,3] - u[0] + u[4] - t[0,3]
   >= -999991.0557
 time_continuity[3,0,5]: - 1e+06 x[0,5,3] - u[0] + u[5] - t[0,3]
   >= -999992.3842
 time_continuity[3,1,2]: - 1e+06 x[1,2,3] - u[1] + u[2] - t[1,3]
   >= -999994.169
 time_continuity[3,1,3]: - 1e+06 x[1,3,3] - u[1] + u[3] - t[1,3]
   >= -999995.5279
 time_continuity[3,1,4]: - 1e+06 x[1,4,3] - u[1] + u[4] - t[1,3]
   >= -999993.9172
 time_continuity[3,1,5]: - 1e+06 x[1,5,3] - u[1] + u[5] - t[1,3]
   >= -999995.8769
 time_continuity[3,2,1]: - 1e+06 x[2,1,3] + u[1] - u[2] - t[2,3]
   >= -999994.169
 time_continuity[3,2,3]: - 1e+06 x[2,3,3] - u[2] + u[3] - t[2,3]
   >= -999992.9289000001
 time_continuity[3,2,4]: - 1e+06 x[2,4,3] - u[2] + u[4] - t[2,3]
   >= -999995
 time_continuity[3,2,5]: - 1e+06 x[2,5,3] - u[2] + u[5] - t[2,3]
   >= -999997.7639
 time_continuity[3,3,1]: - 1e+06 x[3,1,3] + u[1] - u[3] - t[3,3]
   >= -999995.5279
 time_continuity[3,3,2]: - 1e+06 x[3,2,3] + u[2] - u[3] - t[3,3]
   >= -999992.9289000001
 time_continuity[3,3,4]: - 1e+06 x[3,4,3] - u[3] + u[4] - t[3,3]
   >= -999996.3944
 time_continuity[3,3,5]: - 1e+06 x[3,5,3] - u[3] + u[5] - t[3,3]
   >= -999993.2918
 time_continuity[3,4,1]: - 1e+06 x[4,1,3] + u[1] - u[4] - t[4,3]
   >= -999993.9172
 time_continuity[3,4,2]: - 1e+06 x[4,2,3] + u[2] - u[4] - t[4,3]
   >= -999995
 time_continuity[3,4,3]: - 1e+06 x[4,3,3] + u[3] - u[4] - t[4,3]
   >= -999996.3944
 time_continuity[3,4,5]: - 1e+06 x[4,5,3] - u[4] + u[5] - t[4,3]
   >= -999994.169
 time_continuity[3,5,1]: - 1e+06 x[5,1,3] + u[1] - u[5] - t[5,3]
   >= -999995.8769
 time_continuity[3,5,2]: - 1e+06 x[5,2,3] + u[2] - u[5] - t[5,3]
   >= -999997.7639
 time_continuity[3,5,3]: - 1e+06 x[5,3,3] + u[3] - u[5] - t[5,3]
   >= -999993.2918
 time_continuity[3,5,4]: - 1e+06 x[5,4,3] + u[4] - u[5] - t[5,3]
   >= -999994.169
Bounds
Binaries
 x[0,0,0] x[0,0,1] x[0,0,2] x[0,0,3] x[0,1,0] x[0,1,1] x[0,1,2] x[0,1,3]
 x[0,2,0] x[0,2,1] x[0,2,2] x[0,2,3] x[0,3,0] x[0,3,1] x[0,3,2] x[0,3,3]
 x[0,4,0] x[0,4,1] x[0,4,2] x[0,4,3] x[0,5,0] x[0,5,1] x[0,5,2] x[0,5,3]
 x[1,0,0] x[1,0,1] x[1,0,2] x[1,0,3] x[1,1,0] x[1,1,1] x[1,1,2] x[1,1,3]
 x[1,2,0] x[1,2,1] x[1,2,2] x[1,2,3] x[1,3,0] x[1,3,1] x[1,3,2] x[1,3,3]
 x[1,4,0] x[1,4,1] x[1,4,2] x[1,4,3] x[1,5,0] x[1,5,1] x[1,5,2] x[1,5,3]
 x[2,0,0] x[2,0,1] x[2,0,2] x[2,0,3] x[2,1,0] x[2,1,1] x[2,1,2] x[2,1,3]
 x[2,2,0] x[2,2,1] x[2,2,2] x[2,2,3] x[2,3,0] x[2,3,1] x[2,3,2] x[2,3,3]
 x[2,4,0] x[2,4,1] x[2,4,2] x[2,4,3] x[2,5,0] x[2,5,1] x[2,5,2] x[2,5,3]
 x[3,0,0] x[3,0,1] x[3,0,2] x[3,0,3] x[3,1,0] x[3,1,1] x[3,1,2] x[3,1,3]
 x[3,2,0] x[3,2,1] x[3,2,2] x[3,2,3] x[3,3,0] x[3,3,1] x[3,3,2] x[3,3,3]
 x[3,4,0] x[3,4,1] x[3,4,2] x[3,4,3] x[3,5,0] x[3,5,1] x[3,5,2] x[3,5,3]
 x[4,0,0] x[4,0,1] x[4,0,2] x[4,0,3] x[4,1,0] x[4,1,1] x[4,1,2] x[4,1,3]
 x[4,2,0] x[4,2,1] x[4,2,2] x[4,2,3] x[4,3,0] x[4,3,1] x[4,3,2] x[4,3,3]
 x[4,4,0] x[4,4,1] x[4,4,2] x[4,4,3] x[4,5,0] x[4,5,1] x[4,5,2] x[4,5,3]
 x[5,0,0] x[5,0,1] x[5,0,2] x[5,0,3] x[5,1,0] x[5,1,1] x[5,1,2] x[5,1,3]
 x[5,2,0] x[5,2,1] x[5,2,2] x[5,2,3] x[5,3,0] x[5,3,1] x[5,3,2] x[5,3,3]
 x[5,4,0] x[5,4,1] x[5,4,2] x[5,4,3] x[5,5,0] x[5,5,1] x[5,5,2] x[5,5,3]
 y[0,0] y[0,1] y[0,2] y[0,3] y[1,0] y[1,1] y[1,2] y[1,3] y[2,0] y[2,1]
 y[2,2] y[2,3] y[3,0] y[3,1] y[3,2] y[3,3] y[4,0] y[4,1] y[4,2] y[4,3]
 y[5,0] y[5,1] y[5,2] y[5,3] t[0,0] t[0,1] t[0,2] t[0,3] t[1,0] t[1,1]
 t[1,2] t[1,3] t[2,0] t[2,1] t[2,2] t[2,3] t[3,0] t[3,1] t[3,2] t[3,3]
 t[4,0] t[4,1] t[4,2] t[4,3] t[5,0] t[5,1] t[5,2] t[5,3]
End
